sifdecoder -A pc64.lnx.gfo -st   A5NSDSDM

 Problem name: A5NSDSDM

 Double precision version will be formed

 The objective function uses 2 linear groups
 
 There are 2004 linear equality constraints
 
 There are 1504 free variables
 There are 1000 variables bounded only from below 
 There are 3508 fixed variables
 
 
 File successfully decoded
 CUTEST: tools (double precision version) compiled successfully
 CUTEst: ipopt (double precision version) compiled successfully

******************************************************************************
This program contains Ipopt, a library for large-scale nonlinear optimization.
 Ipopt is released as open source code under the Eclipse Public License (EPL).
         For more information visit http://projects.coin-or.org/Ipopt
******************************************************************************

This is Ipopt version trunk, running with linear solver ma57.

Number of nonzeros in equality constraint Jacobian...:     7596
Number of nonzeros in inequality constraint Jacobian.:        0
Number of nonzeros in Lagrangian Hessian.............:     3004

Total number of variables............................:     2504
                     variables with only lower bounds:     1000
                variables with lower and upper bounds:        0
                     variables with only upper bounds:        0
Total number of equality constraints.................:     2004
Total number of inequality constraints...............:        0
        inequality constraints with only lower bounds:        0
   inequality constraints with lower and upper bounds:        0
        inequality constraints with only upper bounds:        0

iter    objective    inf_pr   inf_du lg(mu)  ||d||  lg(rg) alpha_du alpha_pr  ls
   0  4.9999900e-02 9.71e+01 6.13e-01  -1.0 0.00e+00    -  0.00e+00 0.00e+00   0
   1  5.4692041e-02 9.69e+01 1.13e+00  -1.0 1.73e+01  -4.0 1.01e-03 2.08e-03h  1
   2  6.2221249e-02 9.67e+01 1.12e+00  -1.0 1.03e+01  -4.5 1.76e-03 1.74e-03f  1
   3  7.6065512e-02 9.65e+01 1.13e+00  -1.0 1.03e+01  -5.0 2.25e-03 2.67e-03f  1
   4  8.7637510e-02 9.63e+01 1.12e+00  -1.0 1.84e+01  -5.4 2.06e-03 2.07e-03f  1
   5  1.0310878e-01 9.60e+01 1.24e+00  -1.0 1.21e+01  -5.9 3.78e-03 2.64e-03f  1
   6  1.3025907e-01 9.56e+01 1.12e+00  -1.0 1.02e+01  -6.4 2.94e-03 4.45e-03f  1
   7  1.9869390e-01 9.46e+01 2.26e+00  -1.0 1.02e+01  -6.9 5.54e-03 1.04e-02f  1
   8  2.7689847e-01 9.36e+01 2.36e+00  -1.0 1.01e+01  -7.3 8.38e-03 1.09e-02f  1
   9  5.3753194e-01 9.06e+01 2.44e+00  -1.0 9.97e+00  -7.8 4.50e-02 3.12e-02f  1
iter    objective    inf_pr   inf_du lg(mu)  ||d||  lg(rg) alpha_du alpha_pr  ls
  10  8.5167369e+00 5.29e+01 3.24e+01  -1.0 9.66e+00  -8.3 2.96e-02 4.16e-01f  1
  11  9.9998974e+00 4.37e+01 2.87e+01  -1.0 5.63e+00  -8.8 4.35e-01 1.75e-01f  1
  12  1.6348915e+01 2.22e+01 1.41e+01  -1.0 4.61e+00  -9.2 4.12e-01 4.91e-01f  1
  13  2.3462170e+01 1.01e+01 1.31e+02  -1.0 2.33e+00  -9.7 1.14e-01 5.46e-01h  1
  14  2.6606669e+01 6.62e+00 1.14e+02  -1.0 1.20e+00 -10.2 9.10e-01 3.44e-01h  1
  15  2.9072073e+01 3.12e+00 8.57e+02  -1.0 1.59e+01 -10.7 2.07e-01 5.29e-01f  1
  16  3.2629347e+01 1.48e+00 3.62e+02  -1.0 8.17e+00 -11.2 5.84e-01 5.26e-01h  1
  17  3.4518523e+01 6.24e-01 1.34e+04  -1.0 1.64e+01 -11.6 4.19e-02 5.78e-01h  1
  18  3.4765100e+01 4.31e-01 9.08e+03  -1.0 4.02e+01 -12.1 1.06e-01 3.09e-01h  1
  19  3.4855208e+01 3.00e-01 4.62e+03  -1.0 1.76e+01 -12.6 2.47e-01 3.05e-01h  1
iter    objective    inf_pr   inf_du lg(mu)  ||d||  lg(rg) alpha_du alpha_pr  ls
  20  3.5110232e+01 2.05e-01 1.22e+04  -1.0 3.09e+00  -2.7 1.00e+00 3.16e-01h  1
  21  3.5832928e+01 2.38e-05 5.99e-03  -1.0 1.24e+00  -2.3 1.00e+00 1.00e+00h  1
  22  5.2791166e+00 1.24e-07 6.94e-01  -2.5 1.22e+00  -2.8 1.00e+00 9.95e-01f  1
Reallocating memory for MA57: lfact (88927)
  23  1.5910084e+00 3.61e-07 5.40e-04  -2.5 1.01e+00  -3.3 1.00e+00 1.00e+00f  1
  24  2.3911022e-01 1.66e-08 2.26e-02  -5.7 3.10e-01  -3.7 9.45e-01 9.43e-01f  1
Reallocating memory for MA57: lfact (102214)
  25  3.3096641e-02 4.87e-09 2.41e-03  -5.7 9.44e-02  -4.2 9.82e-01 9.82e-01f  1
Reallocating memory for MA57: lfact (116067)
Reallocating memory for MA57: lfact (160768)
  26  3.3067203e-02 4.99e-08 1.84e+03  -5.7 1.88e+11    -  1.31e-03 9.08e-04f  1
  27  3.2864614e-02 3.01e-08 4.53e+02  -5.7 3.46e-02  -4.7 1.00e+00 6.25e-03f  1
Reallocating memory for MA57: lfact (182477)
  28  1.5006253e-02 3.27e-08 6.28e+07  -5.7 3.94e-02  -1.6 9.11e-06 5.39e-01f  1
  29  1.5016394e-02 2.02e-07 6.28e+07  -5.7 2.16e+00  -2.0 3.54e-08 1.05e-05f  8
iter    objective    inf_pr   inf_du lg(mu)  ||d||  lg(rg) alpha_du alpha_pr  ls
  30  1.9704991e-03 7.06e-08 1.59e+06  -5.7 2.56e-02  -2.5 2.21e-01 9.75e-01f  1
  31  1.9836394e-03 2.62e-07 1.59e+06  -5.7 4.64e-01  -3.0 1.43e-05 5.59e-04f  7
  32  2.0091913e-03 7.63e-07 1.59e+06  -5.7 1.47e+00  -3.5 1.03e-03 1.03e-03s 18
  33  2.0572802e-03 1.70e-06 1.59e+06  -5.7 4.40e+00  -4.0 1.94e-03 1.94e-03s 18
  34r 2.0572802e-03 1.70e-06 1.00e+03  -5.7 0.00e+00  -4.4 0.00e+00 0.00e+00R  1
  35r 1.9741153e-03 8.97e-08 1.54e+03  -5.7 3.18e-02    -  2.80e-01 1.08e-03f  1
  36  1.9742733e-03 5.13e-08 4.01e+02  -5.7 1.38e-04  -4.9 1.00e+00 5.34e-03f  2
  37  8.6176771e-04 3.00e-08 2.86e+00  -5.7 2.34e-01  -5.4 9.99e-01 9.10e-01h  1
  38  7.4303645e-04 7.61e-08 1.44e-06  -5.7 1.64e-02  -4.1 1.00e+00 1.00e+00f  1
  39  2.5847832e-05 1.61e-07 3.57e-01  -8.6 1.25e-02  -4.5 9.70e-01 9.53e-01h  1
iter    objective    inf_pr   inf_du lg(mu)  ||d||  lg(rg) alpha_du alpha_pr  ls
  40 -8.0539917e-06 1.30e-07 1.29e+01  -8.6 3.99e-03  -3.2 7.84e-01 9.81e-01f  1
  41 -9.8391175e-06 1.58e-07 3.30e+00  -8.6 3.90e-03  -3.7 8.32e-01 1.00e+00f  1
  42 -1.0574657e-05 8.91e-08 5.44e-01  -8.6 5.04e-04  -4.2 8.07e-01 8.66e-01h  1
  43 -1.0831394e-05 5.47e-09 1.20e+00  -8.6 6.12e-04  -4.6 1.00e+00 8.79e-01f  1
  44 -1.0858301e-05 4.99e-08 1.41e-08  -8.6 1.83e-03  -5.1 1.00e+00 1.00e+00f  1
  45 -1.0823376e-05 4.72e-08 1.42e-08  -8.6 5.52e-03  -5.6 1.00e+00 1.00e+00h  1
  46 -1.0807797e-05 2.65e-08 1.42e-08  -8.6 1.66e-02  -6.1 1.00e+00 1.00e+00h  1
  47 -1.0802574e-05 1.82e-08 1.42e-08  -8.6 4.97e-02  -6.5 1.00e+00 1.00e+00H  1
  48 -1.1279888e-05 4.49e-08 6.19e-05  -9.0 1.49e-01  -7.0 6.85e-01 6.85e-01h  1
  49 -1.1542539e-05 7.67e-08 1.42e-08  -9.0 4.46e-01  -7.5 1.00e+00 1.00e+00f  1
iter    objective    inf_pr   inf_du lg(mu)  ||d||  lg(rg) alpha_du alpha_pr  ls
  50 -1.1544884e-05 7.25e-09 1.45e-05  -9.0 1.33e+00  -8.0 9.35e-03 9.35e-03H  1
  51 -1.1545097e-05 3.87e-08 3.18e-03  -9.0 4.07e+00  -8.5 5.18e-04 2.59e-04f  2
  52 -5.1585904e-06 1.15e-08 1.71e+00  -9.0 5.61e-02  -2.6 1.00e+00 5.00e-01h  2
  53 -1.1513910e-05 1.37e-08 4.97e-01  -9.0 6.92e-02  -3.1 3.28e-01 5.51e-01h  1
  54 -1.1501098e-05 2.81e-08 2.24e+00  -9.0 3.24e-03  -3.6 9.52e-01 1.25e-01f  4
  55 -1.1491699e-05 3.09e-08 5.95e-07  -9.0 8.14e-04  -3.1 1.00e+00 1.00e+00h  1
  56 -1.1484540e-05 7.19e-09 2.19e-07  -9.0 8.98e-04  -3.6 1.00e+00 1.00e+00H  1
  57 -1.1484146e-05 9.68e-09 1.62e+00  -9.0 2.42e-05  -3.2 1.00e+00 6.25e-02h  5
  58 -1.1484143e-05 6.62e-09 1.64e+00  -9.0 6.44e-05  -3.7 1.00e+00 4.88e-04h 12
  59 -1.1479046e-05 1.26e-07 1.42e-08  -9.0 2.46e-05  -3.2 1.00e+00 1.00e+00s 22
iter    objective    inf_pr   inf_du lg(mu)  ||d||  lg(rg) alpha_du alpha_pr  ls
  60 -1.1479896e-05 5.63e-08 1.42e-08  -9.0 7.37e-05  -3.7 1.00e+00 1.00e+00s 22

Number of Iterations....: 60

                                   (scaled)                 (unscaled)
Objective...............:  -1.1479895749052648e-05   -1.1479895749052648e-05
Dual infeasibility......:   1.4191365472760175e-08    1.4191365472760175e-08
Constraint violation....:   5.6340175191849085e-08    5.6340175191849085e-08
Complementarity.........:   9.0909090909091396e-10    9.0909090909091396e-10
Overall NLP error.......:   5.6340175191849085e-08    5.6340175191849085e-08


Number of objective function evaluations             = 151
Number of objective gradient evaluations             = 62
Number of equality constraint evaluations            = 151
Number of inequality constraint evaluations          = 0
Number of equality constraint Jacobian evaluations   = 63
Number of inequality constraint Jacobian evaluations = 0
Number of Lagrangian Hessian evaluations             = 61
Total CPU secs in IPOPT (w/o function evaluations)   =      0.385
Total CPU secs in NLP function evaluations           =      0.087

EXIT: Solved To Acceptable Level.

************************ CUTEst statistics ************************


 Package used            :  IPOPT
 Problem                 :  A5NSDSDM  
 # variables             =            6012
 # constraints           =            2004
 # objective functions   =        0.2140000E+03
 # objective gradients   =        0.6300000E+02
 # objective Hessians    =        0.6100000E+02
 # Hessian-vector prdct  =        0.0000000E+00
 # constraints functions =        0.2160000E+03
 # constraints gradients =        0.6500000E+02
 # constraints Hessians  =        0.6100000E+02
 Exit code               =               1
 Final f                 =       -1.1479895749052648D-05
 Bounds feasibility      =        9.9841689242919995D-09
 Set up time             =            0.38 seconds
 Solve time              =            0.79 seconds


******************************************************************

